
    bond_coeff   1           1000.0  1.0 
    angle_coeff  1         1000.0  109.47
 
    pair_coeff   2 2    0.1553  3.166 # oxygen
    pair_coeff   3 3    0.0     0.0 # hydrogen

    pair_coeff 5 5  0.1  4.4 # chlorine
    pair_coeff 4 4  0.1 2.584 # sodium
    pair_coeff 1 1  0.0565217 3.214 # carbon

