units real
timestep 1
dimension 3
atom_style full
boundary p p f
bond_style harmonic
angle_style harmonic
pair_style lj/cut/coul/long 10.0
pair_modify mix arithmetic
kspace_style pppm 1.0e-5
kspace_modify slab 3.0
